
===== New CPLEX run =====
Instance: /home/yorig/tuner/mpils-tests/instances/miplib/medium-1/mushroom-best.mps
Config: /scratch/yorig/mpils-results-grid-seconds-5/medium-1/24proc/seed-2/7_mushroom-best_seed-2_20260503_110448/expansion/config_param_CPXPARAM_Preprocessing_BoundStrength_0_iter_3.prm
========================

Selected objective sense:  MINIMIZE
Selected objective  name:  obj
Selected RHS        name:  rhs
Selected bound      name:  bnd
Version identifier: 22.1.2.0 | 2024-11-26 | 0edbb82fd
CPXPARAM_Simplex_DGradient                       2
CPXPARAM_Threads                                 8
CPXPARAM_Parallel                                1
CPXPARAM_MIP_Strategy_Branch                     1
CPXPARAM_MIP_Cuts_Cliques                        1
CPXPARAM_MIP_Cuts_Covers                         1
CPXPARAM_MIP_Strategy_VariableSelect             2
CPXPARAM_Preprocessing_BoundStrength             0
CPXPARAM_MIP_Cuts_FlowCovers                     1
CPXPARAM_MIP_Cuts_Implied                        2
CPXPARAM_MIP_Cuts_GUBCovers                      -1
CPXPARAM_MIP_Limits_GomoryCand                   10
CPXPARAM_MIP_Cuts_Gomory                         -1
CPXPARAM_MIP_Cuts_PathCut                        1
CPXPARAM_MIP_Cuts_MIRCut                         -1
CPXPARAM_MIP_Cuts_Disjunctive                    -1
CPXPARAM_Emphasis_MIP                            3
CPXPARAM_MIP_Strategy_RINSHeur                   200
CPXPARAM_TimeLimit                               5
CPXPARAM_MIP_Limits_ProbeTime                    120
Found incumbent of value 8124.895732 after 0.00 sec. (1.54 ticks)
Tried aggregator 2 times.
MIP Presolve modified 8124 coefficients.
Aggregator did 4 substitutions.
Reduced MIP has 8576 rows, 8464 columns, and 180492 nonzeros.
Reduced MIP has 8237 binaries, 114 generals, 0 SOSs, and 0 indicators.
Presolve time = 0.04 sec. (61.25 ticks)
Probing time = 0.00 sec. (2.61 ticks)
Tried aggregator 1 time.
Detecting symmetries...
Reduced MIP has 8576 rows, 8464 columns, and 180492 nonzeros.
Reduced MIP has 8237 binaries, 227 generals, 0 SOSs, and 0 indicators.
Presolve time = 0.04 sec. (57.67 ticks)
Probing time = 0.00 sec. (2.80 ticks)
MIP emphasis: best bound.
MIP search method: dynamic search.
Parallel mode: deterministic, using up to 8 threads.
Root relaxation solution time = 0.11 sec. (182.65 ticks)

        Nodes                                         Cuts/
   Node  Left     Objective  IInf  Best Integer    Best Bound    ItCnt     Gap

*     0+    0                         8124.8957        0.0000           100.00%
*     0+    0                         4208.8957        0.0000           100.00%
*     0+    0                         3916.8946        0.0000           100.00%
*     0+    0                         3916.8936        0.0000           100.00%
*     0+    0                         3916.8925        0.0000           100.00%
*     0+    0                         3916.0000        0.0000           100.00%
      0     0        0.0000    31     3916.0000        0.0000      489  100.00%
*     0+    0                           63.1343        0.0000           100.00%
*     0+    0                            0.0790        0.0000            99.98%
*     0+    0                            0.0632        0.0000            99.98%
*     0+    0                            0.0553        0.0000            99.98%
      0     0  -1.00000e+75     0        0.0553        0.0000      489   99.98%

Repeating presolve.
Tried aggregator 1 time.
MIP Presolve eliminated 104 rows and 8130 columns.
MIP Presolve modified 8124 coefficients.
Reduced MIP has 8472 rows, 334 columns, and 170432 nonzeros.
Reduced MIP has 111 binaries, 223 generals, 0 SOSs, and 0 indicators.
Presolve time = 0.03 sec. (47.40 ticks)
Probing time = 0.00 sec. (2.25 ticks)
Tried aggregator 1 time.
Detecting symmetries...
Reduced MIP has 8472 rows, 334 columns, and 170432 nonzeros.
Reduced MIP has 111 binaries, 223 generals, 0 SOSs, and 0 indicators.
Presolve time = 0.03 sec. (40.36 ticks)
Represolve time = 0.07 sec. (113.69 ticks)
Probing time = 0.00 sec. (2.25 ticks)
MIP emphasis: best bound.
MIP search method: dynamic search.
Parallel mode: deterministic, using up to 8 threads.
Root relaxation solution time = 0.09 sec. (146.97 ticks)

        Nodes                                         Cuts/
   Node  Left     Objective  IInf  Best Integer    Best Bound    ItCnt     Gap

*     0+    0                            0.0553        0.0000            99.98%
      0     0        0.0127    10        0.0553        0.0127      717   77.08%
      0     2        0.0127    10        0.0553        0.0184      717   66.80%
Elapsed time = 1.07 sec. (1891.13 ticks, tree = 0.15 MB, solutions = 10)
      1     3        0.0174    61        0.0553        0.0184      796   66.80%
      3     5        0.0301     9        0.0553        0.0184      882   66.80%
      8     8        0.0396    10        0.0553        0.0184     1019   66.80%
     30    10        0.0203    42        0.0553        0.0190     1046   65.62%
     56    23        0.0332     8        0.0553        0.0190     1631   65.62%
    111    83        0.0329    35        0.0553        0.0214     3524   61.36%
    174   137        0.0340    65        0.0553        0.0233     5344   57.98%
    248   191        0.0327    41        0.0553        0.0301     7046   45.64%
    317   270        0.0349    39        0.0553        0.0314     9658   43.29%
    600   551        0.0419     6        0.0553        0.0364    18844   34.15%
Elapsed time = 3.82 sec. (5519.80 ticks, tree = 28.08 MB, solutions = 10)
    912   853        0.0443     8        0.0553        0.0388    27550   29.90%

Clique cuts applied:  0
Cover cuts applied:  0
Implied bound cuts applied:  0
Flow cuts applied:  0
Flow path cuts applied:  0

Root node processing (before b&c):
  Real time             =    1.06 sec. (1883.09 ticks)
Parallel b&c, 8 threads:
  Real time             =    3.95 sec. (5097.16 ticks)
  Sync time (average)   =    0.69 sec.
  Wait time (average)   =    0.00 sec.
                          ------------
Total (root+branch&cut) =    5.01 sec. (6980.25 ticks)
Gap: 27.54%
Upper bound: 0.0553338
Lower bound: 0.0400963
End of CPLEX run. Time: 5.01013 seconds
